5 5
4 17 2 76 1 62 3 86 0 78
1 34 0 19 4 70 2 82 3 37
1 38 4 15 0 40 3 9 2 53
2 70 4 66 1 80 0 52 3 1
4 30 3 97 1 1 2 39 0 16
-1
0 2 3 4 5
0 1 3 4 5
0 1 2 3 5
0 2 5
0 1 3 5
-2
95 216 279 343
45 151 227 329
40 67 93 192
173 349
35 165 230

372 8
6 12 24 4 18
10 5 2 22 17
1 15 23 8 14
21 13 3 9 19
0 20 11 7 16
